WARNING: for repeatability, setting FPU to use double precision
============================[ Problem Statistics ]=============================
|                                                                             |
|  Number of variables:            50                                         |
|  Number of clauses:             218                                         |
|  Parse time:                   0.00 s                                       |
|                                                                             |
============================[ Search Statistics ]==============================
| Conflicts |          ORIGINAL         |          LEARNT          | Progress |
|           |    Vars  Clauses Literals |    Limit  Clauses Lit/Cl |          |
===============================================================================
===============================================================================
restarts              : 1
conflicts             : 4              (2972 /sec)
decisions             : 13             (0.00 % random) (9658 /sec)
propagations          : 144            (106984 /sec)
conflict literals     : 21             (12.50 % deleted)
Memory used           : 20.00 MB
CPU time              : 0.001346 s

SATISFIABLE
